WARNING: for repeatability, setting FPU to use double precision
============================[ Problem Statistics ]=============================
|                                                                             |
|  Number of variables:           100                                         |
|  Number of clauses:             449                                         |
|  Parse time:                   0.00 s                                       |
|  Eliminated clauses:           0.00 Mb                                      |
|  Simplification time:          0.00 s                                       |
|                                                                             |
============================[ Search Statistics ]==============================
| Conflicts |          ORIGINAL         |          LEARNT          | Progress |
|           |    Vars  Clauses Literals |    Limit  Clauses Lit/Cl |          |
===============================================================================
|       100 |      98      447     1358 |      163      100      7 |  0.010 % |
===============================================================================
restarts              : 3
conflicts             : 201            (44716 /sec)
decisions             : 245            (0.00 % random) (54505 /sec)
propagations          : 4729           (1052058 /sec)
conflict literals     : 1275           (17.32 % deleted)
Memory used           : 13.00 MB
CPU time              : 0.004495 s

SATISFIABLE
